sat
(:max-memory        19.15
 :memory            18.13
 :num-allocs        91900803
 :rlimit-count      118063
 :sls-constraints   1250
 :sls-ddfw-flips    36074.00
 :sls-ddfw-reinits  2
 :sls-ddfw-restarts 20
 :sls-ddfw-shifts   29945.00
 :time              0.10
 :total-time        0.11)
